(set-logic ALL)
(declare-fun distances () (Array Int (Array Int Int)))
(declare-fun s () (Array Int Int))
(declare-fun x_0_1 () Int)
(declare-fun x_0_2 () Int)
(declare-fun x_0_3 () Int)
(declare-fun x_1_1 () Int)
(declare-fun x_1_2 () Int)
(declare-fun x_1_3 () Int)
(declare-fun x_2_1 () Int)
(declare-fun x_2_2 () Int)
(declare-fun x_2_3 () Int)
(declare-fun x_3_1 () Int)
(declare-fun x_3_2 () Int)
(declare-fun x_3_3 () Int)
(declare-fun x_4_1 () Int)
(declare-fun x_4_2 () Int)
(declare-fun x_4_3 () Int)
(declare-fun x_5_1 () Int)
(declare-fun x_5_2 () Int)
(declare-fun x_5_3 () Int)
(declare-fun x_0_4 () Int)
(declare-fun x_0_0 () Int)
(declare-fun x_1_4 () Int)
(declare-fun x_1_0 () Int)
(declare-fun x_2_4 () Int)
(declare-fun x_2_0 () Int)
(declare-fun x_3_4 () Int)
(declare-fun x_3_0 () Int)
(declare-fun x_4_4 () Int)
(declare-fun x_4_0 () Int)
(declare-fun x_5_4 () Int)
(declare-fun x_5_0 () Int)
(declare-fun load_0 () Int)
(declare-fun load_1 () Int)
(declare-fun load_2 () Int)
(declare-fun load_3 () Int)
(declare-fun load_4 () Int)
(declare-fun load_5 () Int)
(declare-fun y_0 () Int)
(declare-fun y_1 () Int)
(declare-fun y_2 () Int)
(declare-fun y_3 () Int)
(declare-fun y_4 () Int)
(declare-fun y_5 () Int)
(declare-fun max_distance () Int)
(assert (= (select (select distances 0) 0) 0))
(assert (= (select (select distances 0) 1) 80))
(assert (= (select (select distances 0) 2) 131))
(assert (= (select (select distances 0) 3) 22))
(assert (= (select (select distances 0) 4) 41))
(assert (= (select (select distances 0) 5) 127))
(assert (= (select (select distances 0) 6) 87))
(assert (= (select (select distances 0) 7) 48))
(assert (= (select (select distances 0) 8) 113))
(assert (= (select (select distances 1) 0) 60))
(assert (= (select (select distances 1) 1) 0))
(assert (= (select (select distances 1) 2) 85))
(assert (= (select (select distances 1) 3) 82))
(assert (= (select (select distances 1) 4) 101))
(assert (= (select (select distances 1) 5) 81))
(assert (= (select (select distances 1) 6) 53))
(assert (= (select (select distances 1) 7) 106))
(assert (= (select (select distances 1) 8) 57))
(assert (= (select (select distances 2) 0) 141))
(assert (= (select (select distances 2) 1) 83))
(assert (= (select (select distances 2) 2) 0))
(assert (= (select (select distances 2) 3) 129))
(assert (= (select (select distances 2) 4) 182))
(assert (= (select (select distances 2) 5) 4))
(assert (= (select (select distances 2) 6) 64))
(assert (= (select (select distances 2) 7) 189))
(assert (= (select (select distances 2) 8) 28))
(assert (= (select (select distances 3) 0) 22))
(assert (= (select (select distances 3) 1) 82))
(assert (= (select (select distances 3) 2) 129))
(assert (= (select (select distances 3) 3) 0))
(assert (= (select (select distances 3) 4) 55))
(assert (= (select (select distances 3) 5) 125))
(assert (= (select (select distances 3) 6) 65))
(assert (= (select (select distances 3) 7) 66))
(assert (= (select (select distances 3) 8) 101))
(assert (= (select (select distances 4) 0) 41))
(assert (= (select (select distances 4) 1) 99))
(assert (= (select (select distances 4) 2) 172))
(assert (= (select (select distances 4) 3) 55))
(assert (= (select (select distances 4) 4) 0))
(assert (= (select (select distances 4) 5) 168))
(assert (= (select (select distances 4) 6) 118))
(assert (= (select (select distances 4) 7) 11))
(assert (= (select (select distances 4) 8) 154))
(assert (= (select (select distances 5) 0) 137))
(assert (= (select (select distances 5) 1) 81))
(assert (= (select (select distances 5) 2) 4))
(assert (= (select (select distances 5) 3) 125))
(assert (= (select (select distances 5) 4) 178))
(assert (= (select (select distances 5) 5) 0))
(assert (= (select (select distances 5) 6) 60))
(assert (= (select (select distances 5) 7) 185))
(assert (= (select (select distances 5) 8) 32))
(assert (= (select (select distances 6) 0) 77))
(assert (= (select (select distances 6) 1) 63))
(assert (= (select (select distances 6) 2) 64))
(assert (= (select (select distances 6) 3) 65))
(assert (= (select (select distances 6) 4) 118))
(assert (= (select (select distances 6) 5) 60))
(assert (= (select (select distances 6) 6) 0))
(assert (= (select (select distances 6) 7) 125))
(assert (= (select (select distances 6) 8) 36))
(assert (= (select (select distances 7) 0) 48))
(assert (= (select (select distances 7) 1) 126))
(assert (= (select (select distances 7) 2) 179))
(assert (= (select (select distances 7) 3) 60))
(assert (= (select (select distances 7) 4) 58))
(assert (= (select (select distances 7) 5) 175))
(assert (= (select (select distances 7) 6) 125))
(assert (= (select (select distances 7) 7) 0))
(assert (= (select (select distances 7) 8) 161))
(assert (= (select (select distances 8) 0) 113))
(assert (= (select (select distances 8) 1) 57))
(assert (= (select (select distances 8) 2) 28))
(assert (= (select (select distances 8) 3) 101))
(assert (= (select (select distances 8) 4) 154))
(assert (= (select (select distances 8) 5) 24))
(assert (= (select (select distances 8) 6) 36))
(assert (= (select (select distances 8) 7) 161))
(assert (= (select (select distances 8) 8) 0))
(assert (= (select s 0) 16))
(assert (= (select s 1) 25))
(assert (= (select s 2) 21))
(assert (= (select s 3) 14))
(assert (= (select s 4) 19))
(assert (= (select s 5) 14))
(assert (= (select s 6) 6))
(assert (= (select s 7) 20))
(assert (= (select s 8) 0))
(assert (and (>= x_0_1 0) (<= x_0_1 8)))
(assert (and (>= x_0_2 0) (<= x_0_2 8)))
(assert (and (>= x_0_3 0) (<= x_0_3 8)))
(assert (and (>= x_1_1 0) (<= x_1_1 8)))
(assert (and (>= x_1_2 0) (<= x_1_2 8)))
(assert (and (>= x_1_3 0) (<= x_1_3 8)))
(assert (and (>= x_2_1 0) (<= x_2_1 8)))
(assert (and (>= x_2_2 0) (<= x_2_2 8)))
(assert (and (>= x_2_3 0) (<= x_2_3 8)))
(assert (and (>= x_3_1 0) (<= x_3_1 8)))
(assert (and (>= x_3_2 0) (<= x_3_2 8)))
(assert (and (>= x_3_3 0) (<= x_3_3 8)))
(assert (and (>= x_4_1 0) (<= x_4_1 8)))
(assert (and (>= x_4_2 0) (<= x_4_2 8)))
(assert (and (>= x_4_3 0) (<= x_4_3 8)))
(assert (and (>= x_5_1 0) (<= x_5_1 8)))
(assert (and (>= x_5_2 0) (<= x_5_2 8)))
(assert (and (>= x_5_3 0) (<= x_5_3 8)))
(assert (and (= x_0_0 8) (= x_0_4 8)))
(assert (and (= x_1_0 8) (= x_1_4 8)))
(assert (and (= x_2_0 8) (= x_2_4 8)))
(assert (and (= x_3_0 8) (= x_3_4 8)))
(assert (and (= x_4_0 8) (= x_4_4 8)))
(assert (and (= x_5_0 8) (= x_5_4 8)))
(assert (= (+ (ite (= x_0_1 0) 1 0)
      (ite (= x_0_2 0) 1 0)
      (ite (= x_0_3 0) 1 0)
      (ite (= x_0_4 0) 1 0)
      (ite (= x_1_1 0) 1 0)
      (ite (= x_1_2 0) 1 0)
      (ite (= x_1_3 0) 1 0)
      (ite (= x_1_4 0) 1 0)
      (ite (= x_2_1 0) 1 0)
      (ite (= x_2_2 0) 1 0)
      (ite (= x_2_3 0) 1 0)
      (ite (= x_2_4 0) 1 0)
      (ite (= x_3_1 0) 1 0)
      (ite (= x_3_2 0) 1 0)
      (ite (= x_3_3 0) 1 0)
      (ite (= x_3_4 0) 1 0)
      (ite (= x_4_1 0) 1 0)
      (ite (= x_4_2 0) 1 0)
      (ite (= x_4_3 0) 1 0)
      (ite (= x_4_4 0) 1 0)
      (ite (= x_5_1 0) 1 0)
      (ite (= x_5_2 0) 1 0)
      (ite (= x_5_3 0) 1 0)
      (ite (= x_5_4 0) 1 0))
   1))
(assert (= (+ (ite (= x_0_1 1) 1 0)
      (ite (= x_0_2 1) 1 0)
      (ite (= x_0_3 1) 1 0)
      (ite (= x_0_4 1) 1 0)
      (ite (= x_1_1 1) 1 0)
      (ite (= x_1_2 1) 1 0)
      (ite (= x_1_3 1) 1 0)
      (ite (= x_1_4 1) 1 0)
      (ite (= x_2_1 1) 1 0)
      (ite (= x_2_2 1) 1 0)
      (ite (= x_2_3 1) 1 0)
      (ite (= x_2_4 1) 1 0)
      (ite (= x_3_1 1) 1 0)
      (ite (= x_3_2 1) 1 0)
      (ite (= x_3_3 1) 1 0)
      (ite (= x_3_4 1) 1 0)
      (ite (= x_4_1 1) 1 0)
      (ite (= x_4_2 1) 1 0)
      (ite (= x_4_3 1) 1 0)
      (ite (= x_4_4 1) 1 0)
      (ite (= x_5_1 1) 1 0)
      (ite (= x_5_2 1) 1 0)
      (ite (= x_5_3 1) 1 0)
      (ite (= x_5_4 1) 1 0))
   1))
(assert (= (+ (ite (= x_0_1 2) 1 0)
      (ite (= x_0_2 2) 1 0)
      (ite (= x_0_3 2) 1 0)
      (ite (= x_0_4 2) 1 0)
      (ite (= x_1_1 2) 1 0)
      (ite (= x_1_2 2) 1 0)
      (ite (= x_1_3 2) 1 0)
      (ite (= x_1_4 2) 1 0)
      (ite (= x_2_1 2) 1 0)
      (ite (= x_2_2 2) 1 0)
      (ite (= x_2_3 2) 1 0)
      (ite (= x_2_4 2) 1 0)
      (ite (= x_3_1 2) 1 0)
      (ite (= x_3_2 2) 1 0)
      (ite (= x_3_3 2) 1 0)
      (ite (= x_3_4 2) 1 0)
      (ite (= x_4_1 2) 1 0)
      (ite (= x_4_2 2) 1 0)
      (ite (= x_4_3 2) 1 0)
      (ite (= x_4_4 2) 1 0)
      (ite (= x_5_1 2) 1 0)
      (ite (= x_5_2 2) 1 0)
      (ite (= x_5_3 2) 1 0)
      (ite (= x_5_4 2) 1 0))
   1))
(assert (= (+ (ite (= x_0_1 3) 1 0)
      (ite (= x_0_2 3) 1 0)
      (ite (= x_0_3 3) 1 0)
      (ite (= x_0_4 3) 1 0)
      (ite (= x_1_1 3) 1 0)
      (ite (= x_1_2 3) 1 0)
      (ite (= x_1_3 3) 1 0)
      (ite (= x_1_4 3) 1 0)
      (ite (= x_2_1 3) 1 0)
      (ite (= x_2_2 3) 1 0)
      (ite (= x_2_3 3) 1 0)
      (ite (= x_2_4 3) 1 0)
      (ite (= x_3_1 3) 1 0)
      (ite (= x_3_2 3) 1 0)
      (ite (= x_3_3 3) 1 0)
      (ite (= x_3_4 3) 1 0)
      (ite (= x_4_1 3) 1 0)
      (ite (= x_4_2 3) 1 0)
      (ite (= x_4_3 3) 1 0)
      (ite (= x_4_4 3) 1 0)
      (ite (= x_5_1 3) 1 0)
      (ite (= x_5_2 3) 1 0)
      (ite (= x_5_3 3) 1 0)
      (ite (= x_5_4 3) 1 0))
   1))
(assert (= (+ (ite (= x_0_1 4) 1 0)
      (ite (= x_0_2 4) 1 0)
      (ite (= x_0_3 4) 1 0)
      (ite (= x_0_4 4) 1 0)
      (ite (= x_1_1 4) 1 0)
      (ite (= x_1_2 4) 1 0)
      (ite (= x_1_3 4) 1 0)
      (ite (= x_1_4 4) 1 0)
      (ite (= x_2_1 4) 1 0)
      (ite (= x_2_2 4) 1 0)
      (ite (= x_2_3 4) 1 0)
      (ite (= x_2_4 4) 1 0)
      (ite (= x_3_1 4) 1 0)
      (ite (= x_3_2 4) 1 0)
      (ite (= x_3_3 4) 1 0)
      (ite (= x_3_4 4) 1 0)
      (ite (= x_4_1 4) 1 0)
      (ite (= x_4_2 4) 1 0)
      (ite (= x_4_3 4) 1 0)
      (ite (= x_4_4 4) 1 0)
      (ite (= x_5_1 4) 1 0)
      (ite (= x_5_2 4) 1 0)
      (ite (= x_5_3 4) 1 0)
      (ite (= x_5_4 4) 1 0))
   1))
(assert (= (+ (ite (= x_0_1 5) 1 0)
      (ite (= x_0_2 5) 1 0)
      (ite (= x_0_3 5) 1 0)
      (ite (= x_0_4 5) 1 0)
      (ite (= x_1_1 5) 1 0)
      (ite (= x_1_2 5) 1 0)
      (ite (= x_1_3 5) 1 0)
      (ite (= x_1_4 5) 1 0)
      (ite (= x_2_1 5) 1 0)
      (ite (= x_2_2 5) 1 0)
      (ite (= x_2_3 5) 1 0)
      (ite (= x_2_4 5) 1 0)
      (ite (= x_3_1 5) 1 0)
      (ite (= x_3_2 5) 1 0)
      (ite (= x_3_3 5) 1 0)
      (ite (= x_3_4 5) 1 0)
      (ite (= x_4_1 5) 1 0)
      (ite (= x_4_2 5) 1 0)
      (ite (= x_4_3 5) 1 0)
      (ite (= x_4_4 5) 1 0)
      (ite (= x_5_1 5) 1 0)
      (ite (= x_5_2 5) 1 0)
      (ite (= x_5_3 5) 1 0)
      (ite (= x_5_4 5) 1 0))
   1))
(assert (= (+ (ite (= x_0_1 6) 1 0)
      (ite (= x_0_2 6) 1 0)
      (ite (= x_0_3 6) 1 0)
      (ite (= x_0_4 6) 1 0)
      (ite (= x_1_1 6) 1 0)
      (ite (= x_1_2 6) 1 0)
      (ite (= x_1_3 6) 1 0)
      (ite (= x_1_4 6) 1 0)
      (ite (= x_2_1 6) 1 0)
      (ite (= x_2_2 6) 1 0)
      (ite (= x_2_3 6) 1 0)
      (ite (= x_2_4 6) 1 0)
      (ite (= x_3_1 6) 1 0)
      (ite (= x_3_2 6) 1 0)
      (ite (= x_3_3 6) 1 0)
      (ite (= x_3_4 6) 1 0)
      (ite (= x_4_1 6) 1 0)
      (ite (= x_4_2 6) 1 0)
      (ite (= x_4_3 6) 1 0)
      (ite (= x_4_4 6) 1 0)
      (ite (= x_5_1 6) 1 0)
      (ite (= x_5_2 6) 1 0)
      (ite (= x_5_3 6) 1 0)
      (ite (= x_5_4 6) 1 0))
   1))
(assert (= (+ (ite (= x_0_1 7) 1 0)
      (ite (= x_0_2 7) 1 0)
      (ite (= x_0_3 7) 1 0)
      (ite (= x_0_4 7) 1 0)
      (ite (= x_1_1 7) 1 0)
      (ite (= x_1_2 7) 1 0)
      (ite (= x_1_3 7) 1 0)
      (ite (= x_1_4 7) 1 0)
      (ite (= x_2_1 7) 1 0)
      (ite (= x_2_2 7) 1 0)
      (ite (= x_2_3 7) 1 0)
      (ite (= x_2_4 7) 1 0)
      (ite (= x_3_1 7) 1 0)
      (ite (= x_3_2 7) 1 0)
      (ite (= x_3_3 7) 1 0)
      (ite (= x_3_4 7) 1 0)
      (ite (= x_4_1 7) 1 0)
      (ite (= x_4_2 7) 1 0)
      (ite (= x_4_3 7) 1 0)
      (ite (= x_4_4 7) 1 0)
      (ite (= x_5_1 7) 1 0)
      (ite (= x_5_2 7) 1 0)
      (ite (= x_5_3 7) 1 0)
      (ite (= x_5_4 7) 1 0))
   1))
(assert (= load_0 (+ (select s x_0_1) (select s x_0_2) (select s x_0_3))))
(assert (<= load_0 200))
(assert (= load_1 (+ (select s x_1_1) (select s x_1_2) (select s x_1_3))))
(assert (<= load_1 100))
(assert (= load_2 (+ (select s x_2_1) (select s x_2_2) (select s x_2_3))))
(assert (<= load_2 200))
(assert (= load_3 (+ (select s x_3_1) (select s x_3_2) (select s x_3_3))))
(assert (<= load_3 300))
(assert (= load_4 (+ (select s x_4_1) (select s x_4_2) (select s x_4_3))))
(assert (<= load_4 200))
(assert (= load_5 (+ (select s x_5_1) (select s x_5_2) (select s x_5_3))))
(assert (<= load_5 100))
(assert (and (<= 6 load_0) (>= 85 load_0)))
(assert (and (<= 6 load_1) (>= 85 load_1)))
(assert (and (<= 6 load_2) (>= 85 load_2)))
(assert (and (<= 6 load_3) (>= 85 load_3)))
(assert (and (<= 6 load_4) (>= 85 load_4)))
(assert (and (<= 6 load_5) (>= 85 load_5)))
(assert (=> (= x_0_1 8) (= x_0_2 8)))
(assert (=> (= x_0_2 8) (= x_0_3 8)))
(assert (=> (= x_0_3 8) (= x_0_4 8)))
(assert (=> (= x_1_1 8) (= x_1_2 8)))
(assert (=> (= x_1_2 8) (= x_1_3 8)))
(assert (=> (= x_1_3 8) (= x_1_4 8)))
(assert (=> (= x_2_1 8) (= x_2_2 8)))
(assert (=> (= x_2_2 8) (= x_2_3 8)))
(assert (=> (= x_2_3 8) (= x_2_4 8)))
(assert (=> (= x_3_1 8) (= x_3_2 8)))
(assert (=> (= x_3_2 8) (= x_3_3 8)))
(assert (=> (= x_3_3 8) (= x_3_4 8)))
(assert (=> (= x_4_1 8) (= x_4_2 8)))
(assert (=> (= x_4_2 8) (= x_4_3 8)))
(assert (=> (= x_4_3 8) (= x_4_4 8)))
(assert (=> (= x_5_1 8) (= x_5_2 8)))
(assert (=> (= x_5_2 8) (= x_5_3 8)))
(assert (=> (= x_5_3 8) (= x_5_4 8)))
(assert (=> false
    (<= (ite (distinct x_0_1 8) x_0_1 (- 1))
        (ite (distinct x_0_1 8) x_0_1 (- 1)))))
(assert (=> true
    (<= (ite (distinct x_0_1 8) x_0_1 (- 1))
        (ite (distinct x_0_1 8) x_0_1 (- 1)))))
(assert (=> false
    (<= (ite (distinct x_0_1 8) x_0_1 (- 1))
        (ite (distinct x_0_1 8) x_0_1 (- 1)))))
(assert (=> true
    (<= (ite (distinct x_0_1 8) x_0_1 (- 1))
        (ite (distinct x_0_1 8) x_0_1 (- 1)))))
(assert (=> false
    (<= (ite (distinct x_0_1 8) x_0_1 (- 1))
        (ite (distinct x_0_1 8) x_0_1 (- 1)))))
(assert (=> false
    (<= (ite (distinct x_1_1 8) x_1_1 (- 1))
        (ite (distinct x_1_1 8) x_1_1 (- 1)))))
(assert (=> false
    (<= (ite (distinct x_1_1 8) x_1_1 (- 1))
        (ite (distinct x_1_1 8) x_1_1 (- 1)))))
(assert (=> false
    (<= (ite (distinct x_1_1 8) x_1_1 (- 1))
        (ite (distinct x_1_1 8) x_1_1 (- 1)))))
(assert (=> true
    (<= (ite (distinct x_1_1 8) x_1_1 (- 1))
        (ite (distinct x_1_1 8) x_1_1 (- 1)))))
(assert (=> false
    (<= (ite (distinct x_2_1 8) x_2_1 (- 1))
        (ite (distinct x_2_1 8) x_2_1 (- 1)))))
(assert (=> true
    (<= (ite (distinct x_2_1 8) x_2_1 (- 1))
        (ite (distinct x_2_1 8) x_2_1 (- 1)))))
(assert (=> false
    (<= (ite (distinct x_2_1 8) x_2_1 (- 1))
        (ite (distinct x_2_1 8) x_2_1 (- 1)))))
(assert (=> false
    (<= (ite (distinct x_3_1 8) x_3_1 (- 1))
        (ite (distinct x_3_1 8) x_3_1 (- 1)))))
(assert (=> false
    (<= (ite (distinct x_3_1 8) x_3_1 (- 1))
        (ite (distinct x_3_1 8) x_3_1 (- 1)))))
(assert (=> false
    (<= (ite (distinct x_4_1 8) x_4_1 (- 1))
        (ite (distinct x_4_1 8) x_4_1 (- 1)))))
(assert (=> false (<= load_0 load_1)))
(assert (=> true (<= load_0 load_2)))
(assert (=> true (<= load_0 load_3)))
(assert (=> true (<= load_0 load_4)))
(assert (=> false (<= load_0 load_5)))
(assert (=> true (<= load_1 load_2)))
(assert (=> true (<= load_1 load_3)))
(assert (=> true (<= load_1 load_4)))
(assert (=> true (<= load_1 load_5)))
(assert (=> true (<= load_2 load_3)))
(assert (=> true (<= load_2 load_4)))
(assert (=> false (<= load_2 load_5)))
(assert (=> false (<= load_3 load_4)))
(assert (=> false (<= load_3 load_5)))
(assert (=> false (<= load_4 load_5)))
(assert (= y_0
   (+ (select (select distances x_0_0) x_0_1)
      (select (select distances x_0_1) x_0_2)
      (select (select distances x_0_2) x_0_3)
      (select (select distances x_0_3) x_0_4))))
(assert (= y_1
   (+ (select (select distances x_1_0) x_1_1)
      (select (select distances x_1_1) x_1_2)
      (select (select distances x_1_2) x_1_3)
      (select (select distances x_1_3) x_1_4))))
(assert (= y_2
   (+ (select (select distances x_2_0) x_2_1)
      (select (select distances x_2_1) x_2_2)
      (select (select distances x_2_2) x_2_3)
      (select (select distances x_2_3) x_2_4))))
(assert (= y_3
   (+ (select (select distances x_3_0) x_3_1)
      (select (select distances x_3_1) x_3_2)
      (select (select distances x_3_2) x_3_3)
      (select (select distances x_3_3) x_3_4))))
(assert (= y_4
   (+ (select (select distances x_4_0) x_4_1)
      (select (select distances x_4_1) x_4_2)
      (select (select distances x_4_2) x_4_3)
      (select (select distances x_4_3) x_4_4))))
(assert (= y_5
   (+ (select (select distances x_5_0) x_5_1)
      (select (select distances x_5_1) x_5_2)
      (select (select distances x_5_2) x_5_3)
      (select (select distances x_5_3) x_5_4))))
(assert (and (<= 48 y_0) (>= 913 y_0)))
(assert (and (<= 48 y_1) (>= 913 y_1)))
(assert (and (<= 48 y_2) (>= 913 y_2)))
(assert (and (<= 48 y_3) (>= 913 y_3)))
(assert (and (<= 48 y_4) (>= 913 y_4)))
(assert (and (<= 48 y_5) (>= 913 y_5)))
(assert (let ((a!1 (ite (> y_2 (ite (> y_1 y_0) y_1 y_0)) y_2 (ite (> y_1 y_0) y_1 y_0))))
(let ((a!2 (ite (> y_4 (ite (> y_3 a!1) y_3 a!1)) y_4 (ite (> y_3 a!1) y_3 a!1))))
  (= max_distance (ite (> y_5 a!2) y_5 a!2)))))
(assert (<= 322 max_distance))
(assert (< max_distance 913))
(assert (< max_distance 912))
(check-sat)
(get-value (x_0_0))
(get-value (x_0_1))
(get-value (x_0_2))
(get-value (x_0_3))
(get-value (x_0_4))
(get-value (x_1_0))
(get-value (x_1_1))
(get-value (x_1_2))
(get-value (x_1_3))
(get-value (x_1_4))
(get-value (x_2_0))
(get-value (x_2_1))
(get-value (x_2_2))
(get-value (x_2_3))
(get-value (x_2_4))
(get-value (x_3_0))
(get-value (x_3_1))
(get-value (x_3_2))
(get-value (x_3_3))
(get-value (x_3_4))
(get-value (x_4_0))
(get-value (x_4_1))
(get-value (x_4_2))
(get-value (x_4_3))
(get-value (x_4_4))
(get-value (x_5_0))
(get-value (x_5_1))
(get-value (x_5_2))
(get-value (x_5_3))
(get-value (x_5_4))
